\ Model STL formula: ((G[0.0, 5.0] ((x <= 12.0) && (x >= 3.0))) && (G[6.0, 10.0] ((x <= 9.0) && (x >= 2.0))) && (G[11.0, 14.0] ((x <= 12.0) && (x >= 2.0))))
\ LP format - for model browsing. Use MPS format to capture full model detail.
Minimize
  - rho + 0 C65 + 0 C66 + 0 C67 + 0 C68 + 0 C69 + 0 C70 + 0 C71 + 0 C72
   + 0 C73 + 0 C74 + 0 C75 + 0 C76 + 0 C77 + 0 C78 + 0 C79 + 0 C80
Subject To
 R0: rho + 1000 predicate_2bxd9200ef4c1e390a_0 + x_0 >= 12
 R1: rho + 1000 predicate_2bxd9200ef4c1e390a_0 + x_0 <= 1012
 R2: - rho + x_0 - 1000 predicate_2dx22dd95ed78b4d217_0 <= 3
 R3: - rho + x_0 - 1000 predicate_2dx22dd95ed78b4d217_0 >= -997
 R4: &&_2dx1c38433587510628_0 - predicate_2bxd9200ef4c1e390a_0 <= 0
 R5: &&_2dx1c38433587510628_0 - predicate_2dx22dd95ed78b4d217_0 <= 0
 R6: &&_2dx1c38433587510628_0 - predicate_2bxd9200ef4c1e390a_0
   - predicate_2dx22dd95ed78b4d217_0 >= -1
 R7: rho + 1000 predicate_2bxd9200ef4c1e390a_1 + x_1 >= 12
 R8: rho + 1000 predicate_2bxd9200ef4c1e390a_1 + x_1 <= 1012
 R9: - rho + x_1 - 1000 predicate_2dx22dd95ed78b4d217_1 <= 3
 R10: - rho + x_1 - 1000 predicate_2dx22dd95ed78b4d217_1 >= -997
 R11: &&_2dx1c38433587510628_1 - predicate_2bxd9200ef4c1e390a_1 <= 0
 R12: &&_2dx1c38433587510628_1 - predicate_2dx22dd95ed78b4d217_1 <= 0
 R13: &&_2dx1c38433587510628_1 - predicate_2bxd9200ef4c1e390a_1
   - predicate_2dx22dd95ed78b4d217_1 >= -1
 R14: rho + 1000 predicate_2bxd9200ef4c1e390a_2 + x_2 >= 12
 R15: rho + 1000 predicate_2bxd9200ef4c1e390a_2 + x_2 <= 1012
 R16: - rho + x_2 - 1000 predicate_2dx22dd95ed78b4d217_2 <= 3
 R17: - rho + x_2 - 1000 predicate_2dx22dd95ed78b4d217_2 >= -997
 R18: &&_2dx1c38433587510628_2 - predicate_2bxd9200ef4c1e390a_2 <= 0
 R19: &&_2dx1c38433587510628_2 - predicate_2dx22dd95ed78b4d217_2 <= 0
 R20: &&_2dx1c38433587510628_2 - predicate_2bxd9200ef4c1e390a_2
   - predicate_2dx22dd95ed78b4d217_2 >= -1
 R21: rho + 1000 predicate_2bxd9200ef4c1e390a_3 + x_3 >= 12
 R22: rho + 1000 predicate_2bxd9200ef4c1e390a_3 + x_3 <= 1012
 R23: - rho + x_3 - 1000 predicate_2dx22dd95ed78b4d217_3 <= 3
 R24: - rho + x_3 - 1000 predicate_2dx22dd95ed78b4d217_3 >= -997
 R25: &&_2dx1c38433587510628_3 - predicate_2bxd9200ef4c1e390a_3 <= 0
 R26: &&_2dx1c38433587510628_3 - predicate_2dx22dd95ed78b4d217_3 <= 0
 R27: &&_2dx1c38433587510628_3 - predicate_2bxd9200ef4c1e390a_3
   - predicate_2dx22dd95ed78b4d217_3 >= -1
 R28: rho + 1000 predicate_2bxd9200ef4c1e390a_4 + x_4 >= 12
 R29: rho + 1000 predicate_2bxd9200ef4c1e390a_4 + x_4 <= 1012
 R30: - rho + x_4 - 1000 predicate_2dx22dd95ed78b4d217_4 <= 3
 R31: - rho + x_4 - 1000 predicate_2dx22dd95ed78b4d217_4 >= -997
 R32: &&_2dx1c38433587510628_4 - predicate_2bxd9200ef4c1e390a_4 <= 0
 R33: &&_2dx1c38433587510628_4 - predicate_2dx22dd95ed78b4d217_4 <= 0
 R34: &&_2dx1c38433587510628_4 - predicate_2bxd9200ef4c1e390a_4
   - predicate_2dx22dd95ed78b4d217_4 >= -1
 R35: rho + 1000 predicate_2bxd9200ef4c1e390a_5 + x_5 >= 12
 R36: rho + 1000 predicate_2bxd9200ef4c1e390a_5 + x_5 <= 1012
 R37: - rho + x_5 - 1000 predicate_2dx22dd95ed78b4d217_5 <= 3
 R38: - rho + x_5 - 1000 predicate_2dx22dd95ed78b4d217_5 >= -997
 R39: &&_2dx1c38433587510628_5 - predicate_2bxd9200ef4c1e390a_5 <= 0
 R40: &&_2dx1c38433587510628_5 - predicate_2dx22dd95ed78b4d217_5 <= 0
 R41: &&_2dx1c38433587510628_5 - predicate_2bxd9200ef4c1e390a_5
   - predicate_2dx22dd95ed78b4d217_5 >= -1
 R42: G_2bx22a9b1092718f831_0 - &&_2dx1c38433587510628_0 <= 0
 R43: G_2bx22a9b1092718f831_0 - &&_2dx1c38433587510628_1 <= 0
 R44: G_2bx22a9b1092718f831_0 - &&_2dx1c38433587510628_2 <= 0
 R45: G_2bx22a9b1092718f831_0 - &&_2dx1c38433587510628_3 <= 0
 R46: G_2bx22a9b1092718f831_0 - &&_2dx1c38433587510628_4 <= 0
 R47: G_2bx22a9b1092718f831_0 - &&_2dx1c38433587510628_5 <= 0
 R48: G_2bx22a9b1092718f831_0 - &&_2dx1c38433587510628_0
   - &&_2dx1c38433587510628_1 - &&_2dx1c38433587510628_2
   - &&_2dx1c38433587510628_3 - &&_2dx1c38433587510628_4
   - &&_2dx1c38433587510628_5 >= -5
 R49: rho + 1000 predicate_2dxa75a8bafccdc3cb_6 + x_6 >= 9
 R50: rho + 1000 predicate_2dxa75a8bafccdc3cb_6 + x_6 <= 1009
 R51: - rho + x_6 - 1000 predicate_2dx14fcdaada9e9bb5e_6 <= 2
 R52: - rho + x_6 - 1000 predicate_2dx14fcdaada9e9bb5e_6 >= -998
 R53: &&_2dx7a86c2b91ea6c26e_6 - predicate_2dxa75a8bafccdc3cb_6 <= 0
 R54: &&_2dx7a86c2b91ea6c26e_6 - predicate_2dx14fcdaada9e9bb5e_6 <= 0
 R55: &&_2dx7a86c2b91ea6c26e_6 - predicate_2dxa75a8bafccdc3cb_6
   - predicate_2dx14fcdaada9e9bb5e_6 >= -1
 R56: rho + 1000 predicate_2dxa75a8bafccdc3cb_7 + x_7 >= 9
 R57: rho + 1000 predicate_2dxa75a8bafccdc3cb_7 + x_7 <= 1009
 R58: - rho + x_7 - 1000 predicate_2dx14fcdaada9e9bb5e_7 <= 2
 R59: - rho + x_7 - 1000 predicate_2dx14fcdaada9e9bb5e_7 >= -998
 R60: &&_2dx7a86c2b91ea6c26e_7 - predicate_2dxa75a8bafccdc3cb_7 <= 0
 R61: &&_2dx7a86c2b91ea6c26e_7 - predicate_2dx14fcdaada9e9bb5e_7 <= 0
 R62: &&_2dx7a86c2b91ea6c26e_7 - predicate_2dxa75a8bafccdc3cb_7
   - predicate_2dx14fcdaada9e9bb5e_7 >= -1
 R63: rho + 1000 predicate_2dxa75a8bafccdc3cb_8 + x_8 >= 9
 R64: rho + 1000 predicate_2dxa75a8bafccdc3cb_8 + x_8 <= 1009
 R65: - rho + x_8 - 1000 predicate_2dx14fcdaada9e9bb5e_8 <= 2
 R66: - rho + x_8 - 1000 predicate_2dx14fcdaada9e9bb5e_8 >= -998
 R67: &&_2dx7a86c2b91ea6c26e_8 - predicate_2dxa75a8bafccdc3cb_8 <= 0
 R68: &&_2dx7a86c2b91ea6c26e_8 - predicate_2dx14fcdaada9e9bb5e_8 <= 0
 R69: &&_2dx7a86c2b91ea6c26e_8 - predicate_2dxa75a8bafccdc3cb_8
   - predicate_2dx14fcdaada9e9bb5e_8 >= -1
 R70: rho + 1000 predicate_2dxa75a8bafccdc3cb_9 + x_9 >= 9
 R71: rho + 1000 predicate_2dxa75a8bafccdc3cb_9 + x_9 <= 1009
 R72: - rho + x_9 - 1000 predicate_2dx14fcdaada9e9bb5e_9 <= 2
 R73: - rho + x_9 - 1000 predicate_2dx14fcdaada9e9bb5e_9 >= -998
 R74: &&_2dx7a86c2b91ea6c26e_9 - predicate_2dxa75a8bafccdc3cb_9 <= 0
 R75: &&_2dx7a86c2b91ea6c26e_9 - predicate_2dx14fcdaada9e9bb5e_9 <= 0
 R76: &&_2dx7a86c2b91ea6c26e_9 - predicate_2dxa75a8bafccdc3cb_9
   - predicate_2dx14fcdaada9e9bb5e_9 >= -1
 R77: rho + 1000 predicate_2dxa75a8bafccdc3cb_10 + x_10 >= 9
 R78: rho + 1000 predicate_2dxa75a8bafccdc3cb_10 + x_10 <= 1009
 R79: - rho + x_10 - 1000 predicate_2dx14fcdaada9e9bb5e_10 <= 2
 R80: - rho + x_10 - 1000 predicate_2dx14fcdaada9e9bb5e_10 >= -998
 R81: &&_2dx7a86c2b91ea6c26e_10 - predicate_2dxa75a8bafccdc3cb_10 <= 0
 R82: &&_2dx7a86c2b91ea6c26e_10 - predicate_2dx14fcdaada9e9bb5e_10 <= 0
 R83: &&_2dx7a86c2b91ea6c26e_10 - predicate_2dxa75a8bafccdc3cb_10
   - predicate_2dx14fcdaada9e9bb5e_10 >= -1
 R84: G_2dx1043554caebcf13c_0 - &&_2dx7a86c2b91ea6c26e_6 <= 0
 R85: G_2dx1043554caebcf13c_0 - &&_2dx7a86c2b91ea6c26e_7 <= 0
 R86: G_2dx1043554caebcf13c_0 - &&_2dx7a86c2b91ea6c26e_8 <= 0
 R87: G_2dx1043554caebcf13c_0 - &&_2dx7a86c2b91ea6c26e_9 <= 0
 R88: G_2dx1043554caebcf13c_0 - &&_2dx7a86c2b91ea6c26e_10 <= 0
 R89: G_2dx1043554caebcf13c_0 - &&_2dx7a86c2b91ea6c26e_6
   - &&_2dx7a86c2b91ea6c26e_7 - &&_2dx7a86c2b91ea6c26e_8
   - &&_2dx7a86c2b91ea6c26e_9 - &&_2dx7a86c2b91ea6c26e_10 >= -4
 R90: rho + 1000 predicate_2bxd9200ef4c1e390a_11 + x_11 >= 12
 R91: rho + 1000 predicate_2bxd9200ef4c1e390a_11 + x_11 <= 1012
 R92: - rho + x_11 - 1000 predicate_2dx14fcdaada9e9bb5e_11 <= 2
 R93: - rho + x_11 - 1000 predicate_2dx14fcdaada9e9bb5e_11 >= -998
 R94: &&_2dx63249569108b8b87_11 - predicate_2bxd9200ef4c1e390a_11 <= 0
 R95: &&_2dx63249569108b8b87_11 - predicate_2dx14fcdaada9e9bb5e_11 <= 0
 R96: &&_2dx63249569108b8b87_11 - predicate_2bxd9200ef4c1e390a_11
   - predicate_2dx14fcdaada9e9bb5e_11 >= -1
 R97: rho + 1000 predicate_2bxd9200ef4c1e390a_12 + x_12 >= 12
 R98: rho + 1000 predicate_2bxd9200ef4c1e390a_12 + x_12 <= 1012
 R99: - rho + x_12 - 1000 predicate_2dx14fcdaada9e9bb5e_12 <= 2
 R100: - rho + x_12 - 1000 predicate_2dx14fcdaada9e9bb5e_12 >= -998
 R101: &&_2dx63249569108b8b87_12 - predicate_2bxd9200ef4c1e390a_12 <= 0
 R102: &&_2dx63249569108b8b87_12 - predicate_2dx14fcdaada9e9bb5e_12 <= 0
 R103: &&_2dx63249569108b8b87_12 - predicate_2bxd9200ef4c1e390a_12
   - predicate_2dx14fcdaada9e9bb5e_12 >= -1
 R104: rho + 1000 predicate_2bxd9200ef4c1e390a_13 + x_13 >= 12
 R105: rho + 1000 predicate_2bxd9200ef4c1e390a_13 + x_13 <= 1012
 R106: - rho + x_13 - 1000 predicate_2dx14fcdaada9e9bb5e_13 <= 2
 R107: - rho + x_13 - 1000 predicate_2dx14fcdaada9e9bb5e_13 >= -998
 R108: &&_2dx63249569108b8b87_13 - predicate_2bxd9200ef4c1e390a_13 <= 0
 R109: &&_2dx63249569108b8b87_13 - predicate_2dx14fcdaada9e9bb5e_13 <= 0
 R110: &&_2dx63249569108b8b87_13 - predicate_2bxd9200ef4c1e390a_13
   - predicate_2dx14fcdaada9e9bb5e_13 >= -1
 R111: rho + 1000 predicate_2bxd9200ef4c1e390a_14 + x_14 >= 12
 R112: rho + 1000 predicate_2bxd9200ef4c1e390a_14 + x_14 <= 1012
 R113: - rho + x_14 - 1000 predicate_2dx14fcdaada9e9bb5e_14 <= 2
 R114: - rho + x_14 - 1000 predicate_2dx14fcdaada9e9bb5e_14 >= -998
 R115: &&_2dx63249569108b8b87_14 - predicate_2bxd9200ef4c1e390a_14 <= 0
 R116: &&_2dx63249569108b8b87_14 - predicate_2dx14fcdaada9e9bb5e_14 <= 0
 R117: &&_2dx63249569108b8b87_14 - predicate_2bxd9200ef4c1e390a_14
   - predicate_2dx14fcdaada9e9bb5e_14 >= -1
 R118: G_2dx57f1500dced85700_0 - &&_2dx63249569108b8b87_11 <= 0
 R119: G_2dx57f1500dced85700_0 - &&_2dx63249569108b8b87_12 <= 0
 R120: G_2dx57f1500dced85700_0 - &&_2dx63249569108b8b87_13 <= 0
 R121: G_2dx57f1500dced85700_0 - &&_2dx63249569108b8b87_14 <= 0
 R122: G_2dx57f1500dced85700_0 - &&_2dx63249569108b8b87_11
   - &&_2dx63249569108b8b87_12 - &&_2dx63249569108b8b87_13
   - &&_2dx63249569108b8b87_14 >= -3
 R123: &&_2dx52c93987133c9d72_0 - G_2bx22a9b1092718f831_0 <= 0
 R124: &&_2dx52c93987133c9d72_0 - G_2dx1043554caebcf13c_0 <= 0
 R125: &&_2dx52c93987133c9d72_0 - G_2dx57f1500dced85700_0 <= 0
 R126: &&_2dx52c93987133c9d72_0 - G_2bx22a9b1092718f831_0
   - G_2dx1043554caebcf13c_0 - G_2dx57f1500dced85700_0 >= -2
 formula_satisfaction: &&_2dx52c93987133c9d72_0 = 1
Bounds
 -infinity <= rho <= 999
 &&_2dx52c93987133c9d72_0 <= 1
 G_2bx22a9b1092718f831_0 <= 1
 &&_2dx1c38433587510628_0 <= 1
 x_0 <= 10
 &&_2dx1c38433587510628_1 <= 1
 x_1 <= 10
 &&_2dx1c38433587510628_2 <= 1
 x_2 <= 10
 &&_2dx1c38433587510628_3 <= 1
 x_3 <= 10
 &&_2dx1c38433587510628_4 <= 1
 x_4 <= 10
 &&_2dx1c38433587510628_5 <= 1
 x_5 <= 10
 G_2dx1043554caebcf13c_0 <= 1
 &&_2dx7a86c2b91ea6c26e_6 <= 1
 x_6 <= 10
 &&_2dx7a86c2b91ea6c26e_7 <= 1
 x_7 <= 10
 &&_2dx7a86c2b91ea6c26e_8 <= 1
 x_8 <= 10
 &&_2dx7a86c2b91ea6c26e_9 <= 1
 x_9 <= 10
 &&_2dx7a86c2b91ea6c26e_10 <= 1
 x_10 <= 10
 G_2dx57f1500dced85700_0 <= 1
 &&_2dx63249569108b8b87_11 <= 1
 x_11 <= 10
 &&_2dx63249569108b8b87_12 <= 1
 x_12 <= 10
 &&_2dx63249569108b8b87_13 <= 1
 x_13 <= 10
 &&_2dx63249569108b8b87_14 <= 1
 x_14 <= 10
 C65 free
 C66 free
 C67 free
 C68 free
 C69 free
 C70 free
 C71 free
 C72 free
 C73 free
 C74 free
 C75 free
 C76 free
 C77 free
 C78 free
 C79 free
 C80 free
Binaries
 predicate_2bxd9200ef4c1e390a_0 predicate_2dx22dd95ed78b4d217_0
 predicate_2bxd9200ef4c1e390a_1 predicate_2dx22dd95ed78b4d217_1
 predicate_2bxd9200ef4c1e390a_2 predicate_2dx22dd95ed78b4d217_2
 predicate_2bxd9200ef4c1e390a_3 predicate_2dx22dd95ed78b4d217_3
 predicate_2bxd9200ef4c1e390a_4 predicate_2dx22dd95ed78b4d217_4
 predicate_2bxd9200ef4c1e390a_5 predicate_2dx22dd95ed78b4d217_5
 predicate_2dxa75a8bafccdc3cb_6 predicate_2dx14fcdaada9e9bb5e_6
 predicate_2dxa75a8bafccdc3cb_7 predicate_2dx14fcdaada9e9bb5e_7
 predicate_2dxa75a8bafccdc3cb_8 predicate_2dx14fcdaada9e9bb5e_8
 predicate_2dxa75a8bafccdc3cb_9 predicate_2dx14fcdaada9e9bb5e_9
 predicate_2dxa75a8bafccdc3cb_10 predicate_2dx14fcdaada9e9bb5e_10
 predicate_2bxd9200ef4c1e390a_11 predicate_2dx14fcdaada9e9bb5e_11
 predicate_2bxd9200ef4c1e390a_12 predicate_2dx14fcdaada9e9bb5e_12
 predicate_2bxd9200ef4c1e390a_13 predicate_2dx14fcdaada9e9bb5e_13
 predicate_2bxd9200ef4c1e390a_14 predicate_2dx14fcdaada9e9bb5e_14
End
